analyze/results_flowersnark/final_miplib_symretope_if_extended_generating_set_cpx_v802__settings_final_nopeek_norelabel_extend_norestarts__2__square37.mps.gz.sol
solution status: optimal solution found
objective value:                                   15
x_1_1_17                                            1 	(obj:1)
x_1_18_20                                           1 	(obj:1)
x_18_1_9                                            1 	(obj:1)
x_18_10_5                                           1 	(obj:1)
x_18_15_3                                           1 	(obj:1)
x_21_15_2                                           1 	(obj:1)
x_21_17_4                                           1 	(obj:1)
x_21_21_17                                          1 	(obj:1)
x_23_10_4                                           1 	(obj:1)
x_23_14_3                                           1 	(obj:1)
x_25_17_4                                           1 	(obj:1)
x_26_14_3                                           1 	(obj:1)
x_27_1_11                                           1 	(obj:1)
x_27_12_2                                           1 	(obj:1)
x_29_12_9                                           1 	(obj:1)
y_20                                                1 	(obj:0)
y_17                                                2 	(obj:0)
y_11                                                1 	(obj:0)
y_9                                                 2 	(obj:0)
y_5                                                 1 	(obj:0)
y_4                                                 3 	(obj:0)
y_3                                                 3 	(obj:0)
y_2                                                 2 	(obj:0)
